% File represents an instance of a Composite Structure problem to be solved by a CP framework
% Created on 2025-03-26 10:41:21.393
T = 58;
n = 16;
m = 24;
edges = [(2, 1),
(5, 6),
(9, 10),
(14, 13),
(2, 3),
(6, 7),
(11, 10),
(15, 14),
(4, 3),
(8, 7),
(12, 11),
(16, 15),
(1, 5),
(5, 9),
(9, 13),
(2, 6),
(6, 10),
(14, 10),
(3, 7),
(11, 7),
(15, 11),
(4, 8),
(12, 8),
(16, 12)];
counts = [|10, 12, 10, 22,
|10, 12, 10, 24,
|10, 8, 10, 22,
|10, 10, 10, 26,
|10, 12, 10, 20,
|10, 12, 10, 18,
|10, 6, 10, 18,
|10, 6, 10, 24,
|10, 8, 10, 18,
|10, 8, 10, 16,
|10, 10, 10, 18,
|10, 10, 10, 24,
|8, 8, 8, 18,
|10, 8, 10, 18,
|10, 14, 10, 18,
|10, 14, 10, 24|];
